NAME          LP_Problem
ROWS
 N  COST
 E  C1
 E  C2
 E  C3
 E  C4
COLUMNS
    X1        COST      -2
    X1        C2        4
    X1        C3       -3
    X1        C4        4
    X2        COST      4
    X2        C1        3
    X2        C2       -3
    X2        C3        2
    X3        COST     -2
    X3        C2        8
    X3        C4       -1
    X4        COST      2
    X4        C2       -1
    X4        C3       -4
RHS
    RHS1      C1        6
    RHS1      C2        20
    RHS1      C3       -8
    RHS1      C4        18
BOUNDS
 LO BND1     X1        0
 LO BND1     X2        0
 LO BND1     X3        0
 LO BND1     X4        0
ENDATA
